125
[12,13,14,15,16,17,19,20,21,22,23,25,26,27,29,30,31,32,33,34,35,36,37,38,39,40,41,42,43,44,45,46,47,48,49,51,52,53,54,55,56,57,58,59,60,62,63,64,65,66,67,68,69,70,71,73,74,76,77,78,79,80,81,82,83,84,85,86,87]
[3,2,4,3,2,2,3,3,3,1,4,4,4,3,1,1,3,5,5,4,3,1,2,2,4,2,2,2,4,1,3,3,1,1,3,4,3,3,1,1,3,3,6,4,3,2,3,2,5,2,1,5,2,6,6,2,1,1,4,2,3,3,4,2,5,2,3,7,2]
